%nprocshared=6
%mem=10GB
# hf/def2tzvp stable=opt

N

0 4
N 0.0 0.0 0.0

