%mem = 10GB
%nproc = 6
# hf/def2tzvp opt freq nosymm

8 6

0 1
8 0.0 0.0 0.0
6 0.0 0.0 1.1

