%nprocshared=6
%mem=10GB
# ccsd/def2tzvp

B

0 2
B 0.0 0.0 0.0

