%nprocshared=6
%mem=10GB
# ccsd/def2tzvp

F

0 2
F 0.0 0.0 0.0

