%nprocshared=6
%mem=10GB
# ccsd/def2tzvp

N

0 2
N 0.0 0.0 0.0

