%nprocshared=6
%mem=10GB
# hf/def2tzvp stable=opt

B

0 2
B 0.0 0.0 0.0

