%nprocshared=6
%mem=10GB
# ccsd/def2tzvp

C

0 1
C 0.0 0.0 0.0

