%nprocshared=6
%mem=10GB
# hf/def2tzvp stable=opt

O

0 3
O 0.0 0.0 0.0

