%nprocshared=6
%mem=10GB
# ccsd/def2tzvp

C

0 3
C 0.0 0.0 0.0

